20J7M/DAT/20J7MNNL-13.dat
20 7
20.2003 20.2003
29.4078 29.4078
23.8307 23.8307
21.3846 21.3846
22.2174 22.2174
31.0095 31.0095
27.9914 27.9914
22.7679 22.7679
21.2838 21.2838
21.3454 21.3454
23.637 23.637
28.8955 28.8955
26.7928 26.7928
27.2812 27.2812
33.6768 33.6768
27.2614 27.2614
22.9246 22.9246
27.0467 27.0467
22.1325 22.1325
24.5247 24.5247
505.612