20J7M/SOL/20J7MNNL-13.sol
solution status: optimal solution found
objective value:                     72.2302857142857
x#1#4                                               1 	(obj:0)
x#2#1                                0.12961721525776 	(obj:0)
x#2#2                               0.694522735950521 	(obj:0)
x#2#7                                0.17586004879172 	(obj:0)
x#3#5                               0.148387823869451 	(obj:0)
x#3#7                               0.851612176130549 	(obj:0)
x#4#1                               0.560394596378435 	(obj:0)
x#4#4                               0.439605403621565 	(obj:0)
x#5#1                                               1 	(obj:0)
x#6#3                                0.36414923537257 	(obj:0)
x#6#7                                0.63585076462743 	(obj:0)
x#7#6                                               1 	(obj:0)
x#8#1                                               1 	(obj:0)
x#9#4                                               1 	(obj:0)
x#10#4                                              1 	(obj:0)
x#11#5                                              1 	(obj:0)
x#12#1                              0.396235202218833 	(obj:0)
x#12#6                              0.603764797781167 	(obj:0)
x#13#6                                              1 	(obj:0)
x#14#2                                              1 	(obj:0)
x#15#3                                              1 	(obj:0)
x#16#3                                              1 	(obj:0)
x#17#5                                              1 	(obj:0)
x#18#7                                              1 	(obj:0)
x#19#5                                              1 	(obj:0)
x#20#2                                              1 	(obj:0)
z                                    72.2302857142857 	(obj:1)
